8

N       -0.46030318      -0.35553233       0.76348026      -0.00193805      -0.00163916      -0.00679422      -0.04979168   -1490.01448431
H       -1.33299793      -0.29121152       0.26874356      -0.00141912       0.00336104       0.00959678       0.21417699     -15.57742387
N        0.61644761      -0.82490680       0.12752710      -0.00271545      -0.00268154      -0.01074583      -0.08719901   -1490.29761374
N        1.59607208      -0.80776654       0.96839890      -0.00717225       0.00112582      -0.00215312      -0.23691818   -1490.50357946
C        1.15170840      -0.32334298       2.15990207       0.00955383       0.00270669       0.01631705      -0.05143561   -1037.28352401
H        1.80245552      -0.22095432       3.00929937       0.01448295      -0.00108422       0.00815084       0.09994933     -15.77935021
C       -0.17601634      -0.02726123       2.04066697      -0.00478879       0.00214026       0.00299412       0.01023895   -1037.21301451
H       -0.90460525       0.36956396       2.72415152      -0.00600314      -0.00392890      -0.01736563       0.10097922     -15.78970627