8

N       -0.71662074       0.44169116       0.00931581       0.36532842      -0.09113304      -0.02029359      -0.27616444   -1490.43208507
H       -1.32011858      -0.37669314       0.00590426       0.01281018      -0.00607642      -0.02203303       0.15093859     -15.55115678
N        0.46900381       0.06405053      -0.00275751      -0.52432451       0.07030120      -0.22493111       0.35185175   -1489.14177490
N        1.56527064      -0.14443765      -0.01259042       0.13735753       0.01864084      -0.02237424      -0.18331546   -1491.00992067
C        1.02564995      -0.02867281       2.99258521      -0.13496946       0.03109186       0.13669558      -0.13865780   -1036.85112300
H        2.05571711      -0.29287205       2.98270022      -0.01418110       0.01416134      -0.00456150       0.11556271     -15.76694042
C       -0.13397725       0.26919015       3.00371767      -0.05298724      -0.03061048       0.17752106      -0.13911795   -1036.86390521
H       -1.17074620       0.52696331       3.01358997       0.21096618      -0.00637531      -0.02002318       0.11890260     -15.77403194