24

C     3.68720078  -0.36560924  -0.09574340
C     3.54664955   1.04379877  -0.26077642
C     2.31683590   1.61377778  -0.28295848
C     1.13702034   0.81845612  -0.14203090
C    -0.13705964   1.37801610  -0.16103288
C    -1.27740629   0.59239443  -0.02283629
C    -2.59234000   1.15370035  -0.04043489
C    -3.68709190   0.36586968   0.09605367
C    -3.54696405  -1.04364713   0.26042414
C    -2.31725436  -1.61384129   0.28238665
C    -1.13708213  -0.81892024   0.14185354
C     0.13713630  -1.37806301   0.16103538
C     1.27771579  -0.59277406   0.02310677
C     2.59277082  -1.15385486   0.04103332
H     4.67751310  -0.80188383  -0.08024692
H     4.43236080   1.65629196  -0.36877426
H     2.20572657   2.68421304  -0.40834656
H    -0.24367255   2.45024976  -0.28633436
H    -2.69440743   2.22509351  -0.16533162
H    -4.67722624   0.80258100   0.08144556
H    -4.43285180  -1.65604863   0.36746907
H    -2.20651816  -2.68442729   0.40685751
H     0.24373655  -2.45025905   0.28633161
H     2.69520827  -2.22511100   0.16684972
