14

C     0.22006513   1.12907582   0.42561613
C    -1.16453920   1.15092252   0.47493970
C    -1.89395893   0.04054234   0.07154533
C    -1.24490889  -1.09922574  -0.38387464
C     0.13912796  -1.13701240  -0.43927629
C     0.84195751  -0.01808919  -0.03182792
N     2.31736879  -0.04951589  -0.08750034
O     2.91538118   0.94305698   0.27434697
O     2.84365432  -1.06601428  -0.49179011
H     0.81684241   1.97493902   0.73167209
H    -1.67367862   2.03689299   0.82905025
H    -2.97497936   0.06359436   0.11234685
H    -1.81672704  -1.96203254  -0.69714288
H     0.67439446  -2.00713500  -0.78810492
