39
Properties=species:S:1:pos:R:3:masses:R:1:forces:R:3:energies:R:1 name:=T TS_bromobenzene.xyz=T (Step=T 136)=T 1);=T charge:=T 0;=T multiplicity:=T 1;=T smiles:=T CP(C)(C)->Pd+2(<-Br-)(<-c-1ccccc1)<-P(C)(C)C;=T method:=T ωB97M-V;=T basis_set:=T def2-TZVPD;=T engine:=T GPU4PySCF;=T generated_by:=T Rowan;=T timestamp:=T 2026-05-24=T 08:39:27;=T charge=0 spin=1 energy=-104918.93709085496 stress="-1.0120400950727289e-09 4.05521313776413e-09 1.3703806064758878e-10 4.05521313776413e-09 -2.6367894407490132e-09 1.238737096985545e-09 1.3703806064758878e-10 1.238737096985545e-09 1.9474227247026124e-09" free_energy=-104918.93709085496 pbc="F F F"
C       15.45353681      12.29225822      18.66572919      12.00000000       0.11121780      -0.03193736      -0.05796526   -1037.32080267
Br      13.02000232      13.22201684      19.68018278      78.91833760      -0.40748358       0.24562683      -0.46048169  -70043.88850656
P       12.67751303      14.14117636      15.92728938      30.97376200       0.05136654       0.07234191       0.12185378   -9290.17996415
Pd      14.34023317      13.53326648      17.56792638     105.90348040       0.08976860      -0.13201759       0.32144845   -3471.63032147
P       16.37935980      14.03175877      16.65832430      30.97376200      -0.10403366      -0.03375769      -0.07839876   -9290.15639959
C       12.50800924      15.86738932      15.36030007      12.00000000       0.02073498       0.02077576       0.03688223   -1037.63016500
H       13.68363575      13.48279838      13.81273567       1.00782503      -0.00093728       0.00103705       0.00532516     -15.89574805
H       11.67786044      15.97106060      14.65868616       1.00782503       0.00367363       0.00190356       0.00385711     -15.91642714
H       17.53541754      15.10923735      14.80764871       1.00782503      -0.01105399       0.00303707      -0.00755571     -15.91393823
H       13.42896598      16.18745639      14.87267224       1.00782503       0.00513888       0.00687936       0.00166756     -15.89522666
C       12.75469458      13.24552435      14.33213781      12.00000000       0.02139386       0.03322377       0.04629089   -1037.64305932
H       12.33454610      16.51550414      16.21896552       1.00782503       0.00452867       0.00426261       0.00594927     -15.88906220
H       16.95163215      11.94789107      15.56890981       1.00782503      -0.00607861      -0.00007990       0.00542741     -15.89662308
H       10.78584603      14.27103947      17.41252810       1.00782503       0.00355677       0.00005031       0.00013585     -15.90504724
C       10.99027482      13.74138574      16.48235322      12.00000000       0.01541134       0.03116818       0.03777444   -1037.64914198
H       12.73911122      12.17232457      14.52145690       1.00782503       0.00088297      -0.00084315       0.00380666     -15.88936745
H       16.02698917      15.95253571      15.21768544       1.00782503      -0.01302866      -0.00034120      -0.00020920     -15.89735314
H       10.24439953      14.00218121      15.72882673       1.00782503       0.00196439       0.00239186       0.00354858     -15.91627401
H       10.93683885      12.67470263      16.69981118       1.00782503      -0.00101461       0.00221955       0.00528473     -15.89977564
C       17.48904406      15.04540220      17.69689472      12.00000000      -0.05178862       0.01270784      -0.04953746   -1037.65260831
H       17.63791383      12.03920072      17.19320669       1.00782503       0.00586589       0.00532862      -0.00044867     -15.94571062
H       16.98417247      15.96312870      17.99775785       1.00782503      -0.00829502      -0.00164511      -0.00079829     -15.88924410
H       17.85167716       9.58911621      20.00850738       1.00782503       0.00076982      -0.00835703       0.02018450     -15.89619687
H       15.97121996      14.44329953      14.29514542       1.00782503      -0.01270005      -0.00110675      -0.00116773     -15.90008911
H       18.00887022      11.91251144      20.84180902       1.00782503      -0.00099625      -0.00454576       0.00790440     -15.88866999
C       16.49021208      14.97351032      15.09345095      12.00000000      -0.09744872      -0.01011186      -0.02677120   -1037.64192615
H       14.46349818      10.67980260      17.63853247       1.00782503       0.01478297      -0.00668245      -0.01399563     -15.87974474
H       17.77440302      14.49484177      18.58908125       1.00782503      -0.00174888      -0.00000467      -0.00477886     -15.90890182
H       11.91121476      13.50666043      13.68944206       1.00782503       0.00442089       0.00166365       0.00234633     -15.91642468
C       15.26442215      10.95855561      18.31410313      12.00000000       0.15732260      -0.03986045      -0.06849766   -1037.52085998
C       17.44796100      12.60576060      16.28261074      12.00000000      -0.01121739       0.01063122      -0.06262580   -1037.68317313
H       15.99700256       8.95320446      18.49338496       1.00782503       0.01188668      -0.00387907       0.00179979     -15.88540829
H       18.39105460      15.29808528      17.13544202       1.00782503      -0.00523471       0.00196796      -0.00682417     -15.90825327
C       16.38024091      12.62080459      19.64200937      12.00000000       0.08297850      -0.03865734      -0.01671018   -1037.51213063
C       16.12552765       9.98592625      18.79455221      12.00000000       0.09174967      -0.04699924       0.03294344   -1037.51187220
C       17.25448034      11.64903310      20.10980393      12.00000000       0.02166951      -0.03951393       0.07886104   -1037.50991278
H       16.43195791      13.63170850      20.02654546       1.00782503       0.00705944      -0.00366269      -0.00137405     -15.90450529
C       17.15695585      10.34006791      19.65494944      12.00000000       0.01326937      -0.05554183       0.12379435   -1037.52056354
H       18.39491925      12.94825978      15.86070180       1.00782503      -0.00835375       0.00232797      -0.00894565     -15.90544274
