39
Properties=species:S:1:pos:R:3:masses:R:1:forces:R:3:energies:R:1 name:=T TS_bromobenzene.xyz=T (Step=T 136)=T 1);=T charge:=T 0;=T multiplicity:=T 1;=T smiles:=T CP(C)(C)->Pd+2(<-Br-)(<-c-1ccccc1)<-P(C)(C)C;=T method:=T ωB97M-V;=T basis_set:=T def2-TZVPD;=T engine:=T GPU4PySCF;=T generated_by:=T Rowan;=T timestamp:=T 2026-05-24=T 08:39:27;=T charge=0 spin=1 energy=-104918.12607343243 stress="-1.8712640040057103e-09 -2.3892326220124485e-10 -4.0448798527100167e-10 -2.3892326220124485e-10 -9.241609900902624e-10 1.0472728070898148e-09 -4.0448798527100167e-10 1.0472728070898148e-09 -2.5403525450415186e-09" free_energy=-104918.12607343243 pbc="F F F"
C       14.72319830      12.11429754      19.61624872      12.00000000      -0.00220646      -0.02010036       0.03131406   -1037.11771947
Br      13.14448511      13.11890037      19.94380390      78.91833760       0.02043102      -0.02119417       0.07936955  -70042.44101224
P       12.61112000      13.98270676      15.92493831      30.97376200      -0.03501230      -0.01393454      -0.00685350   -9290.30319009
Pd      14.44404947      13.63059455      17.21118131     105.90348040       0.03965683       0.14707895      -0.23722152   -3471.87217933
P       16.58847113      14.06739669      16.66858243      30.97376200       0.02716860       0.00753876      -0.00273741   -9290.32568883
C       12.40977613      15.72304729      15.38177987      12.00000000      -0.02400144      -0.00469112      -0.00280935   -1037.64713630
H       13.52662854      13.38310433      13.77204982       1.00782503      -0.00177266       0.00084749      -0.00335755     -15.88883812
H       11.55734161      15.86066584      14.71143263       1.00782503      -0.00523494      -0.00107556      -0.00131023     -15.91721639
H       17.75238152      15.30883066      14.87638249       1.00782503       0.00451008       0.00301833       0.00144393     -15.91695677
H       13.32044631      16.04051672      14.87194862       1.00782503      -0.00482649      -0.00089614      -0.00218387     -15.89139086
C       12.60528051      13.13354024      14.29977791      12.00000000      -0.02580913      -0.00982864      -0.00049675   -1037.64317699
H       12.28293126      16.35993607      16.25774127       1.00782503      -0.00443035      -0.00324003      -0.00092747     -15.89033292
H       17.22265907      12.09835671      15.43025414       1.00782503       0.00661627      -0.00090818       0.00009978     -15.89015423
H       10.72255003      14.18069708      17.42394246       1.00782503       0.00107018      -0.00135877       0.00185888     -15.90161458
C       10.91407070      13.61554200      16.51149132      12.00000000      -0.00941879      -0.01155869       0.01327646   -1037.63619015
H       12.59676325      12.05436322      14.45534830       1.00782503      -0.00306119      -0.00207369       0.00006485     -15.88902754
H       16.19006669      16.04087042      15.31729590       1.00782503       0.00308781       0.00492473       0.00134550     -15.89137443
H       10.15442395      13.86626908      15.76708102       1.00782503      -0.00129932      -0.00072224       0.00086571     -15.91860886
H       10.83853553      12.55597154      16.75779279       1.00782503      -0.00022671      -0.00355983       0.00331495     -15.89490971
C       17.66889782      15.02043887      17.80382376      12.00000000       0.00755692      -0.01177518       0.01075959   -1037.64810223
H       17.88265032      12.05543243      17.06308181       1.00782503      -0.00132009       0.00299452      -0.00084244     -15.92540823
H       17.16471752      15.94737177      18.07854418       1.00782503      -0.00071123      -0.00150662      -0.00262710     -15.88826332
H       17.91005518      10.04431984      19.01807323       1.00782503       0.00180286      -0.00270646       0.00019033     -15.89688699
H       16.22252858      14.57989038      14.33277440       1.00782503       0.00373693       0.00217262       0.00175450     -15.89267838
H       17.97843414      12.03224298      20.49007781       1.00782503      -0.00341496       0.00066464       0.00058386     -15.89122408
C       16.71611421      15.09966876      15.15513050      12.00000000       0.02327000       0.01211338       0.00594705   -1037.65150921
H       13.73123966      10.72368332      18.32075171       1.00782503      -0.00111626      -0.00166447      -0.00020535     -15.89754715
H       17.82599947      14.44148530      18.71475676       1.00782503      -0.00098923       0.00035631       0.00170499     -15.91163065
H       11.74932355      13.41350320      13.68014180       1.00782503      -0.00298812      -0.00155447       0.00010668     -15.91761482
C       14.66526031      11.00021787      18.78901456      12.00000000      -0.00520704      -0.01004795       0.01920269   -1037.54038750
C       17.71197110      12.69749464      16.19930083      12.00000000       0.00895297       0.00417387      -0.00310776   -1037.66325318
H       15.78430699       9.39039575      17.93510161       1.00782503      -0.00350186      -0.00219772      -0.00268818     -15.88301222
H       18.63599934      15.25811042      17.35415269       1.00782503       0.00725605      -0.00297147       0.00446705     -15.91699511
C       15.90414342      12.48869301      20.23883764      12.00000000      -0.00494031      -0.02942119       0.03910205   -1037.52942611
C       15.82081329      10.25962372      18.57886518      12.00000000      -0.00211989       0.00268942       0.00974940   -1037.53107094
C       17.05199314      11.74422336      20.00896915      12.00000000      -0.00587981      -0.02351680       0.02841739   -1037.52872829
H       15.92382680      13.35680361      20.88378752       1.00782503       0.00296216      -0.00214134       0.00011001     -15.89201331
C       17.01328835      10.62734021      19.18456347      12.00000000      -0.00953251      -0.00377604       0.01033363   -1037.52344928
H       18.67055312      13.05920042      15.81849257       1.00782503       0.00094239      -0.00015134       0.00198560     -15.91617577
