39

  C          15.03669905695701     12.12217042710143     18.89537985111962
  Br         13.21881534529018     12.95599155641258     19.62188818037577
  P          12.68107053702526     13.84480801056380     15.82262284738978
  Pd         14.40581899263084     13.47433498516571     17.38731072003016
  P          16.47907754522379     14.44149105691451     16.93527375444219
  C          12.96698735361144     14.85505310740984     14.32384376270909
  H          12.64084849626201     11.80139014218495     14.51947513329179
  H          12.05513370956059     14.97223070922472     13.73401363123333
  H          17.61612357424226     15.99217105422416     15.40612930757583
  H          13.73101041444141     14.37946969009699     13.70767162751769
  C          11.89761909592930     12.36426993363164     15.08467731333898
  H          13.33410458777993     15.83952932902710     14.61547565788606
  H          17.36610110714839     12.71969490117007     15.49008298249146
  H          11.51636538496523     15.67761067376614     16.88427636018814
  C          11.22592066013702     14.68521126405057     16.53852661796144
  H          11.52458971611640     11.72343231888911     15.88423946147993
  H          15.97958314548582     16.54029712652608     15.83416040168962
  H          10.41139042379998     14.77762140050668     15.81691986318417
  H          10.88359095302459     14.11923241224692     17.40567768251923
  C          17.41279168199059     15.31811085112255     18.24267861517652
  H          17.82617513997968     12.45420594135375     17.17117057167380
  H          16.83476195570850     16.17388159969640     18.59222939334751
  H          17.85907391149206      9.48336149881282     18.87614399851869
  H          16.18689843442173     15.23297936368918     14.66711683004026
  H          18.02839759523954     11.48641995403281     20.33272339954871
  C          16.58720530476404     15.67015938331553     15.58238077951997
  H          13.96412652244985     10.76361534838815     17.61269370704834
  H          17.57140295259806     14.64631856410130     19.08585730010176
  H          11.06981193868354     12.63120060974582     14.42361701465323
  C          14.88811989031685     10.95568546348660     18.14251684484787
  C          17.72009292056719     13.21367285441241     16.39543850456270
  H          15.82896207535478      9.13883520705717     17.50636334390312
  H          18.38288522377881     15.66314498635191     17.87759369932834
  C          16.15018631321034     12.28658394487955     19.73147344616773
  C          15.93250556184463     10.03010081511656     18.11303502003689
  C          17.15645967335891     11.34577848596654     19.70523918881533
  H          16.21091781250666     13.15320123981216     20.37587372180248
  C          17.06508229965654     10.21795683840365     18.88206259264518
  H          18.69121878244541     13.67466482114136     16.20017329183637
